p edge 62
e 0 6
e 0 15
e 0 17
e 0 20
e 0 23
e 1 28
e 1 31
e 1 44
e 1 57
e 2 10
e 2 27
e 2 32
e 2 35
e 2 45
e 2 50
e 3 30
e 3 31
e 3 38
e 4 9
e 4 15
e 4 17
e 5 37
e 5 45
e 5 50
e 5 55
e 5 58
e 6 20
e 6 23
e 6 36
e 7 13
e 7 34
e 7 40
e 7 59
e 8 11
e 8 19
e 8 46
e 8 60
e 9 15
e 9 16
e 9 29
e 9 59
e 10 30
e 10 32
e 10 45
e 10 47
e 10 49
e 11 26
e 11 30
e 11 60
e 12 22
e 12 35
e 12 47
e 12 56
e 13 16
e 13 40
e 13 46
e 13 48
e 13 59
e 14 18
e 14 21
e 14 33
e 14 54
e 14 61
e 15 17
e 15 20
e 15 29
e 16 48
e 16 59
e 18 21
e 18 61
e 19 34
e 19 40
e 19 46
e 20 29
e 20 36
e 21 33
e 22 38
e 22 44
e 22 49
e 24 39
e 24 41
e 24 43
e 24 53
e 25 37
e 25 48
e 25 55
e 25 60
e 26 30
e 26 45
e 26 55
e 26 60
e 27 35
e 27 43
e 27 50
e 28 31
e 28 57
e 29 34
e 29 36
e 29 59
e 30 38
e 30 45
e 30 49
e 31 38
e 31 44
e 32 35
e 32 47
e 33 54
e 33 57
e 34 36
e 34 40
e 34 59
e 35 43
e 35 47
e 35 51
e 35 56
e 37 48
e 37 52
e 37 55
e 37 58
e 38 44
e 38 49
e 39 43
e 39 50
e 39 52
e 39 58
e 40 46
e 41 43
e 41 51
e 41 53
e 41 56
e 42 54
e 43 50
e 43 51
e 45 50
e 45 55
e 46 48
e 46 60
e 47 49
e 48 52
e 48 60
e 50 58
e 51 56
e 52 58
e 54 57
e 55 60
c k 26
